17	4
14	13	14	13	
0	0	0	0	0	3	2	3	4	
4	0	0	9	0	1	17	
1	8	2	0	0	3	7	8	14	
1	6	2	0	0	3	5	9	17	
8	0	0	4	0	2	6	14	
100	0	4	1	0	3	12	17	17	
200	0	8	3	9	1	17	
175	9	0	10	0	3	10	17	17	
250	2	0	2	8	1	17	
225	0	9	0	0	2	11	13	
75	0	0	6	0	1	17	
250	6	0	0	8	1	16	
8	0	10	0	0	3	15	17	17	
5	0	0	10	0	1	17	
8	10	0	4	4	1	17	
1	10	7	9	5	1	17	
0	0	0	0	0	0	
